; SWAP2 SWAP1 SWAP2 OR => SWAP1 SWAP2 OR
(set-option :produce-proofs true)
; 
(set-info :status unknown)
(declare-fun storage_t ((_ BitVec 256) (_ BitVec 256) (_ BitVec 256) Int (_ BitVec 256)) (_ BitVec 256))
(declare-fun storage_s ((_ BitVec 256) (_ BitVec 256) (_ BitVec 256) Int (_ BitVec 256)) (_ BitVec 256))
(declare-fun exc_halt_t (Int) Bool)
(declare-fun exc_halt_s (Int) Bool)
(declare-fun stack_t ((_ BitVec 256) (_ BitVec 256) (_ BitVec 256) Int (_ BitVec 6)) (_ BitVec 256))
(declare-fun stack_s ((_ BitVec 256) (_ BitVec 256) (_ BitVec 256) Int (_ BitVec 6)) (_ BitVec 256))
(declare-fun sc_t (Int) (_ BitVec 6))
(declare-fun sc_s (Int) (_ BitVec 6))
(declare-fun used_gas_t ((_ BitVec 256) (_ BitVec 256) (_ BitVec 256) Int) Int)
(declare-fun used_gas_s ((_ BitVec 256) (_ BitVec 256) (_ BitVec 256) Int) Int)
(assert
 (exists ((x_0 (_ BitVec 256)) (x_1 (_ BitVec 256)) (x_2 (_ BitVec 256)) )(let (($x567 (forall ((w (_ BitVec 256)) )(let ((?x11405 (storage_t x_0 x_1 x_2 3 w)))
 (let ((?x7902 (storage_s x_0 x_1 x_2 4 w)))
 (= ?x7902 ?x11405))))
 ))
 (let (($x6783 (exc_halt_t 3)))
 (let (($x7172 (exc_halt_s 4)))
 (let (($x8411 (= $x7172 $x6783)))
 (let (($x2264 (forall ((n (_ BitVec 6)) )(let ((?x6017 (stack_t x_0 x_1 x_2 3 n)))
 (let ((?x10155 (stack_s x_0 x_1 x_2 4 n)))
 (let (($x11294 (= ?x10155 ?x6017)))
 (or (bvsle (sc_t 3) n) $x11294)))))
 ))
 (let ((?x6438 (sc_t 3)))
 (let ((?x4305 (sc_s 4)))
 (let (($x6495 (= ?x4305 ?x6438)))
 (let (($x518 (not (and $x6495 $x2264 $x8411 $x567))))
 (let ((?x6121 (used_gas_t x_0 x_1 x_2 0)))
 (let ((?x7458 (used_gas_s x_0 x_1 x_2 0)))
 (let (($x1848 (= ?x7458 ?x6121)))
 (let (($x9725 (forall ((w (_ BitVec 256)) )(let ((?x5986 (storage_t x_0 x_1 x_2 0 w)))
 (let ((?x3534 (storage_s x_0 x_1 x_2 0 w)))
 (= ?x3534 ?x5986))))
 ))
 (let (($x56 (exc_halt_t 0)))
 (let (($x57 (exc_halt_s 0)))
 (let (($x58 (= $x57 $x56)))
 (let (($x11232 (forall ((n (_ BitVec 6)) )(let ((?x2754 (stack_t x_0 x_1 x_2 0 n)))
 (let ((?x7563 (stack_s x_0 x_1 x_2 0 n)))
 (let (($x10837 (= ?x7563 ?x2754)))
 (let ((?x63 (sc_t 0)))
 (let (($x3267 (bvsle ?x63 n)))
 (or $x3267 $x10837)))))))
 ))
 (let ((?x63 (sc_t 0)))
 (let ((?x72 (sc_s 0)))
 (let (($x73 (= ?x72 ?x63)))
 (let (($x2593 (= $x6783 (or (exc_halt_t 2) (not (bvsle (_ bv0 6) (bvadd (_ bv62 6) (sc_t 2))))))))
 (let (($x11080 (forall ((w (_ BitVec 256)) )(let ((?x2981 (storage_t x_0 x_1 x_2 2 w)))
 (let ((?x11405 (storage_t x_0 x_1 x_2 3 w)))
 (= ?x11405 ?x2981))))
 ))
 (let (($x4178 (forall ((n (_ BitVec 6)) )(let ((?x8168 (stack_t x_0 x_1 x_2 2 n)))
 (let ((?x6017 (stack_t x_0 x_1 x_2 3 n)))
 (or (bvsle (bvadd (_ bv62 6) (sc_t 2)) n) (= ?x6017 ?x8168)))))
 ))
 (let ((?x2714 (sc_t 2)))
 (let ((?x5743 (bvadd (_ bv63 6) ?x2714)))
 (let (($x4717 (= ?x6438 ?x5743)))
 (let (($x11399 (= (used_gas_t x_0 x_1 x_2 3) (+ 3 (used_gas_t x_0 x_1 x_2 2)))))
 (let ((?x875 (bvadd (_ bv62 6) ?x2714)))
 (let ((?x8860 (stack_t x_0 x_1 x_2 2 ?x875)))
 (let ((?x10101 (stack_t x_0 x_1 x_2 2 ?x5743)))
 (let ((?x11838 (bvadd (_ bv63 6) ?x6438)))
 (let ((?x8343 (stack_t x_0 x_1 x_2 3 ?x11838)))
 (let (($x5252 (exc_halt_t 2)))
 (let (($x5855 (= $x5252 (or (exc_halt_t 1) (not (bvsle (_ bv0 6) (bvadd (_ bv61 6) (sc_t 1))))))))
 (let (($x7577 (forall ((w (_ BitVec 256)) )(let ((?x10092 (storage_t x_0 x_1 x_2 1 w)))
 (let ((?x2981 (storage_t x_0 x_1 x_2 2 w)))
 (= ?x2981 ?x10092))))
 ))
 (let (($x5097 (forall ((n (_ BitVec 6)) )(let ((?x10980 (stack_t x_0 x_1 x_2 1 n)))
 (let ((?x8168 (stack_t x_0 x_1 x_2 2 n)))
 (or (= ?x8168 ?x10980) (bvsle (bvadd (_ bv61 6) (sc_t 1)) n)))))
 ))
 (let ((?x8347 (sc_t 1)))
 (let (($x10676 (= ?x2714 ?x8347)))
 (let ((?x11296 (used_gas_t x_0 x_1 x_2 2)))
 (let (($x704 (= ?x11296 (+ 3 (used_gas_t x_0 x_1 x_2 1)))))
 (let ((?x6516 (bvadd (_ bv62 6) ?x8347)))
 (let ((?x8204 (stack_t x_0 x_1 x_2 1 ?x6516)))
 (let (($x4873 (= ?x8860 ?x8204)))
 (let ((?x401 (bvadd (_ bv63 6) ?x8347)))
 (let ((?x1841 (stack_t x_0 x_1 x_2 1 ?x401)))
 (let (($x2918 (= (stack_t x_0 x_1 x_2 2 (bvadd (_ bv61 6) ?x2714)) ?x1841)))
 (let (($x11130 (= ?x10101 (stack_t x_0 x_1 x_2 1 (bvadd (_ bv61 6) ?x8347)))))
 (let (($x3508 (exc_halt_t 1)))
 (let (($x7829 (= $x3508 (or $x56 (not (bvsle (_ bv0 6) (bvadd (_ bv62 6) ?x63)))))))
 (let (($x10797 (forall ((w (_ BitVec 256)) )(let ((?x5986 (storage_t x_0 x_1 x_2 0 w)))
 (let ((?x10092 (storage_t x_0 x_1 x_2 1 w)))
 (= ?x10092 ?x5986))))
 ))
 (let (($x1900 (forall ((n (_ BitVec 6)) )(let ((?x2754 (stack_t x_0 x_1 x_2 0 n)))
 (let ((?x10980 (stack_t x_0 x_1 x_2 1 n)))
 (or (= ?x10980 ?x2754) (bvsle (bvadd (_ bv62 6) (sc_t 0)) n)))))
 ))
 (let (($x2771 (= ?x8347 ?x63)))
 (let ((?x10265 (used_gas_t x_0 x_1 x_2 1)))
 (let (($x1890 (= ?x10265 (+ 3 ?x6121))))
 (let (($x5680 (= ?x8204 (stack_t x_0 x_1 x_2 0 (bvadd (_ bv63 6) ?x63)))))
 (let (($x4428 (= ?x1841 (stack_t x_0 x_1 x_2 0 (bvadd (_ bv62 6) ?x63)))))
 (let (($x4030 (= $x7172 (or (exc_halt_s 3) (not (bvsle (_ bv0 6) (bvadd (_ bv62 6) (sc_s 3))))))))
 (let (($x8040 (forall ((w (_ BitVec 256)) )(let ((?x6145 (storage_s x_0 x_1 x_2 3 w)))
 (let ((?x7902 (storage_s x_0 x_1 x_2 4 w)))
 (= ?x7902 ?x6145))))
 ))
 (let (($x6811 (forall ((n (_ BitVec 6)) )(let ((?x849 (stack_s x_0 x_1 x_2 3 n)))
 (let ((?x10155 (stack_s x_0 x_1 x_2 4 n)))
 (or (bvsle (bvadd (_ bv62 6) (sc_s 3)) n) (= ?x10155 ?x849)))))
 ))
 (let ((?x275 (sc_s 3)))
 (let ((?x6354 (bvadd (_ bv63 6) ?x275)))
 (let (($x3487 (= ?x4305 ?x6354)))
 (let (($x1067 (= (used_gas_s x_0 x_1 x_2 4) (+ 3 (used_gas_s x_0 x_1 x_2 3)))))
 (let ((?x10732 (bvadd (_ bv62 6) ?x275)))
 (let ((?x8972 (stack_s x_0 x_1 x_2 3 ?x10732)))
 (let ((?x10094 (stack_s x_0 x_1 x_2 3 ?x6354)))
 (let ((?x4062 (bvadd (_ bv63 6) ?x4305)))
 (let ((?x10038 (stack_s x_0 x_1 x_2 4 ?x4062)))
 (let (($x292 (exc_halt_s 3)))
 (let (($x1924 (= $x292 (or (exc_halt_s 2) (not (bvsle (_ bv0 6) (bvadd (_ bv61 6) (sc_s 2))))))))
 (let (($x1291 (forall ((w (_ BitVec 256)) )(let ((?x5671 (storage_s x_0 x_1 x_2 2 w)))
 (let ((?x6145 (storage_s x_0 x_1 x_2 3 w)))
 (= ?x6145 ?x5671))))
 ))
 (let (($x4267 (forall ((n (_ BitVec 6)) )(let ((?x7112 (stack_s x_0 x_1 x_2 2 n)))
 (let ((?x849 (stack_s x_0 x_1 x_2 3 n)))
 (or (bvsle (bvadd (_ bv61 6) (sc_s 2)) n) (= ?x849 ?x7112)))))
 ))
 (let ((?x218 (sc_s 2)))
 (let (($x11200 (= ?x275 ?x218)))
 (let ((?x1084 (used_gas_s x_0 x_1 x_2 3)))
 (let (($x10260 (= ?x1084 (+ 3 (used_gas_s x_0 x_1 x_2 2)))))
 (let ((?x2342 (bvadd (_ bv62 6) ?x218)))
 (let ((?x611 (stack_s x_0 x_1 x_2 2 ?x2342)))
 (let (($x7283 (= ?x8972 ?x611)))
 (let ((?x4506 (bvadd (_ bv63 6) ?x218)))
 (let ((?x8442 (stack_s x_0 x_1 x_2 2 ?x4506)))
 (let (($x8886 (= (stack_s x_0 x_1 x_2 3 (bvadd (_ bv61 6) ?x275)) ?x8442)))
 (let (($x10105 (= ?x10094 (stack_s x_0 x_1 x_2 2 (bvadd (_ bv61 6) ?x218)))))
 (let (($x247 (exc_halt_s 2)))
 (let (($x7256 (= $x247 (or (exc_halt_s 1) (not (bvsle (_ bv0 6) (bvadd (_ bv62 6) (sc_s 1))))))))
 (let (($x742 (forall ((w (_ BitVec 256)) )(let ((?x5223 (storage_s x_0 x_1 x_2 1 w)))
 (let ((?x5671 (storage_s x_0 x_1 x_2 2 w)))
 (= ?x5671 ?x5223))))
 ))
 (let (($x5413 (forall ((n (_ BitVec 6)) )(let ((?x5963 (stack_s x_0 x_1 x_2 1 n)))
 (let ((?x7112 (stack_s x_0 x_1 x_2 2 n)))
 (or (bvsle (bvadd (_ bv62 6) (sc_s 1)) n) (= ?x7112 ?x5963)))))
 ))
 (let ((?x154 (sc_s 1)))
 (let (($x9571 (= ?x218 ?x154)))
 (let ((?x11185 (used_gas_s x_0 x_1 x_2 2)))
 (let (($x7645 (= ?x11185 (+ 3 (used_gas_s x_0 x_1 x_2 1)))))
 (let ((?x7858 (bvadd (_ bv63 6) ?x154)))
 (let ((?x8120 (stack_s x_0 x_1 x_2 1 ?x7858)))
 (let (($x3391 (= ?x611 ?x8120)))
 (let ((?x3833 (bvadd (_ bv62 6) ?x154)))
 (let ((?x7076 (stack_s x_0 x_1 x_2 1 ?x3833)))
 (let (($x4787 (= ?x8442 ?x7076)))
 (let (($x189 (exc_halt_s 1)))
 (let (($x10415 (= $x189 (or $x57 (not (bvsle (_ bv0 6) (bvadd (_ bv61 6) ?x72)))))))
 (let (($x748 (forall ((w (_ BitVec 256)) )(let ((?x3534 (storage_s x_0 x_1 x_2 0 w)))
 (let ((?x5223 (storage_s x_0 x_1 x_2 1 w)))
 (= ?x5223 ?x3534))))
 ))
 (let (($x2810 (forall ((n (_ BitVec 6)) )(let ((?x7563 (stack_s x_0 x_1 x_2 0 n)))
 (let ((?x5963 (stack_s x_0 x_1 x_2 1 n)))
 (or (bvsle (bvadd (_ bv61 6) (sc_s 0)) n) (= ?x5963 ?x7563)))))
 ))
 (let (($x4998 (= ?x154 ?x72)))
 (let ((?x1417 (used_gas_s x_0 x_1 x_2 1)))
 (let (($x8041 (= ?x1417 (+ 3 ?x7458))))
 (let (($x5124 (= ?x7076 (stack_s x_0 x_1 x_2 0 (bvadd (_ bv62 6) ?x72)))))
 (let (($x6818 (= (stack_s x_0 x_1 x_2 1 (bvadd (_ bv61 6) ?x154)) (stack_s x_0 x_1 x_2 0 (bvadd (_ bv63 6) ?x72)))))
 (let (($x9098 (= ?x8120 (stack_s x_0 x_1 x_2 0 (bvadd (_ bv61 6) ?x72)))))
 (let (($x5748 (forall ((w (_ BitVec 256)) )(let ((?x3534 (storage_s x_0 x_1 x_2 0 w)))
 (= ?x3534 (_ bv0 256))))
 ))
 (let (($x9914 (= ?x7458 0)))
 (let (($x2751 (not $x57)))
 (let (($x6188 (= (stack_s x_0 x_1 x_2 0 (_ bv2 6)) x_2)))
 (let (($x3414 (= (stack_s x_0 x_1 x_2 0 (_ bv1 6)) x_1)))
 (let (($x6256 (= (stack_s x_0 x_1 x_2 0 (_ bv0 6)) x_0)))
 (let (($x5315 (= ?x72 (_ bv3 6))))
 (and $x5315 $x6256 $x3414 $x6188 $x2751 $x9914 $x5748 $x9098 $x6818 $x5124 $x8041 $x4998 $x2810 $x748 $x10415 $x4787 $x3391 $x7645 $x9571 $x5413 $x742 $x7256 $x10105 $x8886 $x7283 $x10260 $x11200 $x4267 $x1291 $x1924 (= ?x10038 (bvor ?x10094 ?x8972)) $x1067 $x3487 $x6811 $x8040 $x4030 $x4428 $x5680 $x1890 $x2771 $x1900 $x10797 $x7829 $x11130 $x2918 $x4873 $x704 $x10676 $x5097 $x7577 $x5855 (= ?x8343 (bvor ?x10101 ?x8860)) $x11399 $x4717 $x4178 $x11080 $x2593 $x73 $x11232 $x58 $x9725 $x1848 $x518))))))))))))))))))))))))))))))))))))))))))))))))))))))))))))))))))))))))))))))))))))))))))))))))))))))))))))))))))))
 )
(check-sat)
(get-proof)
